data;

param n:=28;
param p:=4;
param r:=[1] 0 [2] 1 [3] 7 [4] 4 [5] 1 [6] 18 [7] 11 [8] 2 [9] 25 [10] 33 [11] 37 [12] 42 [13] 34 [14] 41 [15] 0 [16] 59 [17] 27 [18] 1 [19] 31 [20] 30 [21] 37 [22] 79 [23] 81 [24] 79 [25] 9 [26] 8 [27] 29 [28] 53 ;
param w:=[1] 25 [2] 70 [3] 42 [4] 5 [5] 82 [6] 68 [7] 37 [8] 83 [9] 46 [10] 48 [11] 43 [12] 14 [13] 86 [14] 48 [15] 67 [16] 90 [17] 35 [18] 17 [19] 79 [20] 68 [21] 89 [22] 58 [23] 58 [24] 59 [25] 33 [26] 31 [27] 71 [28] 12 ;

end;
